100 10
538 646
488 703
545 355
612 242
538 903
507 774
900 432
559 569
735 634
424 478
416 586
502 362
443 544
493 928
208 515
530 803
419 621
736 393
573 821
440 394
523 790
482 533
448 736
135 780
447 516
574 587
333 561
569 558
546 688
818 692
413 291
421 529
376 844
355 372
726 318
134 667
334 611
410 694
535 195
675 462
723 455
555 789
417 491
385 140
376 359
432 539
621 685
555 665
633 643
602 688
709 531
625 258
173 465
410 637
616 665
597 581
675 557
327 794
420 396
561 879
780 634
444 626
340 285
773 116
934 384
559 191
693 815
683 236
704 407
317 629
827 701
525 273
373 865
692 591
601 497
601 469
272 655
667 956
348 689
78 682
422 330
789 785
442 736
669 590
120 458
763 158
414 816
204 613
453 317
280 438
774 286
486 284
222 629
409 856
374 686
656 899
189 756
693 805
665 374
154 801
